c Reduced graph for GEOM30 generated by Cyril Grelier
p edge 30 50
e 1 5
e 1 7
e 1 10
e 1 15
e 2 18
e 2 22
e 3 13
e 3 29
e 4 11
e 4 16
e 4 17
e 4 19
e 4 26
e 5 15
e 5 20
e 5 21
e 5 28
e 6 12
e 6 23
e 6 27
e 7 10
e 8 25
e 9 10
e 10 15
e 10 22
e 11 16
e 11 17
e 11 19
e 11 26
e 12 23
e 12 29
e 13 29
e 14 18
e 14 30
e 15 20
e 15 22
e 15 28
e 16 17
e 16 19
e 16 26
e 17 19
e 17 26
e 19 26
e 20 21
e 20 22
e 20 28
e 21 24
e 21 28
e 23 27
e 24 28
